WARNING: for repeatability, setting FPU to use double precision
============================[ Problem Statistics ]=============================
|                                                                             |
|  Number of variables:           100                                         |
|  Number of clauses:             449                                         |
|  Parse time:                   0.00 s                                       |
|  Eliminated clauses:           0.00 Mb                                      |
|  Simplification time:          0.00 s                                       |
|                                                                             |
============================[ Search Statistics ]==============================
| Conflicts |          ORIGINAL         |          LEARNT          | Progress |
|           |    Vars  Clauses Literals |    Limit  Clauses Lit/Cl |          |
===============================================================================
|       100 |      97      447     1356 |      163      100      6 |  0.010 % |
|       250 |      97      447     1356 |      180      164      6 |  0.060 % |
===============================================================================
restarts              : 3
conflicts             : 272            (inf /sec)
decisions             : 338            (0.00 % random) (inf /sec)
propagations          : 6234           (inf /sec)
conflict literals     : 1604           (19.84 % deleted)
Memory used           : 13.00 MB
CPU time              : 0 s

SATISFIABLE
